p wcnf 377 1228
w -2 0.367879 0
w 2 2.718282 0
w -3 0.367879 0
w 3 2.718282 0
w -4 0.367879 0
w 4 2.718282 0
w -5 0.367879 0
w 5 2.718282 0
w -6 0.367879 0
w 6 2.718282 0
w -7 0.367879 0
w 7 2.718282 0
w -8 0.367879 0
w 8 2.718282 0
w -10 0.367879 0
w 10 2.718282 0
w -11 0.367879 0
w 11 2.718282 0
w -12 0.367879 0
w 12 2.718282 0
w -13 0.367879 0
w 13 2.718282 0
w -14 0.367879 0
w 14 2.718282 0
w -15 0.367879 0
w 15 2.718282 0
w -16 0.367879 0
w 16 2.718282 0
w -17 0.367879 0
w 17 2.718282 0
w -18 0.367879 0
w 18 2.718282 0
w -19 0.367879 0
w 19 2.718282 0
w -20 0.367879 0
w 20 2.718282 0
w -22 0.367879 0
w 22 2.718282 0
w -23 0.367879 0
w 23 2.718282 0
w -24 0.367879 0
w 24 2.718282 0
w -25 0.367879 0
w 25 2.718282 0
w -26 0.367879 0
w 26 2.718282 0
w -27 0.367879 0
w 27 2.718282 0
w -28 0.367879 0
w 28 2.718282 0
w -29 0.367879 0
w 29 2.718282 0
w -30 0.367879 0
w 30 2.718282 0
w -31 0.367879 0
w 31 2.718282 0
w -32 0.367879 0
w 32 2.718282 0
w -33 0.367879 0
w 33 2.718282 0
w -35 0.367879 0
w 35 2.718282 0
w -36 0.367879 0
w 36 2.718282 0
w -37 0.367879 0
w 37 2.718282 0
w -38 0.367879 0
w 38 2.718282 0
w -39 0.367879 0
w 39 2.718282 0
w -40 0.367879 0
w 40 2.718282 0
w -41 0.367879 0
w 41 2.718282 0
w -42 0.367879 0
w 42 2.718282 0
w -43 0.367879 0
w 43 2.718282 0
w -44 0.367879 0
w 44 2.718282 0
w -45 0.367879 0
w 45 2.718282 0
w -47 0.367879 0
w 47 2.718282 0
w -48 0.367879 0
w 48 2.718282 0
w -49 0.367879 0
w 49 2.718282 0
w -50 0.367879 0
w 50 2.718282 0
w -51 0.367879 0
w 51 2.718282 0
w -52 0.367879 0
w 52 2.718282 0
w -53 0.367879 0
w 53 2.718282 0
w -54 0.367879 0
w 54 2.718282 0
w -55 0.367879 0
w 55 2.718282 0
w -57 0.367879 0
w 57 2.718282 0
w -58 0.367879 0
w 58 2.718282 0
w -59 0.367879 0
w 59 2.718282 0
w -60 0.367879 0
w 60 2.718282 0
w -61 0.367879 0
w 61 2.718282 0
w -62 0.367879 0
w 62 2.718282 0
w -63 0.367879 0
w 63 2.718282 0
w -65 0.367879 0
w 65 2.718282 0
w -66 0.367879 0
w 66 2.718282 0
w -67 0.367879 0
w 67 2.718282 0
w -68 0.367879 0
w 68 2.718282 0
w -69 0.367879 0
w 69 2.718282 0
w -70 0.367879 0
w 70 2.718282 0
w -71 0.367879 0
w 71 2.718282 0
w -72 0.367879 0
w 72 2.718282 0
w -74 0.367879 0
w 74 2.718282 0
w -75 0.367879 0
w 75 2.718282 0
w -76 0.367879 0
w 76 2.718282 0
w -77 0.367879 0
w 77 2.718282 0
w -78 0.367879 0
w 78 2.718282 0
w -79 0.367879 0
w 79 2.718282 0
w -80 0.367879 0
w 80 2.718282 0
w -81 0.367879 0
w 81 2.718282 0
w -82 0.367879 0
w 82 2.718282 0
w -83 0.367879 0
w 83 2.718282 0
w -85 0.367879 0
w 85 2.718282 0
w -86 0.367879 0
w 86 2.718282 0
w -87 0.367879 0
w 87 2.718282 0
w -88 0.367879 0
w 88 2.718282 0
w -89 0.367879 0
w 89 2.718282 0
w -90 0.367879 0
w 90 2.718282 0
w -91 0.367879 0
w 91 2.718282 0
w -92 0.367879 0
w 92 2.718282 0
w -93 0.367879 0
w 93 2.718282 0
w -94 0.367879 0
w 94 2.718282 0
w -95 0.367879 0
w 95 2.718282 0
w -96 0.367879 0
w 96 2.718282 0
w -97 0.367879 0
w 97 2.718282 0
w -98 0.367879 0
w 98 2.718282 0
w -99 0.367879 0
w 99 2.718282 0
w -101 0.367879 0
w 101 2.718282 0
w -102 0.367879 0
w 102 2.718282 0
w -103 0.367879 0
w 103 2.718282 0
w -104 0.367879 0
w 104 2.718282 0
w -105 0.367879 0
w 105 2.718282 0
w -107 0.367879 0
w 107 2.718282 0
w -108 0.367879 0
w 108 2.718282 0
w -109 0.367879 0
w 109 2.718282 0
w -110 0.367879 0
w 110 2.718282 0
w -111 0.367879 0
w 111 2.718282 0
w -112 0.367879 0
w 112 2.718282 0
w -114 0.367879 0
w 114 2.718282 0
w -115 0.367879 0
w 115 2.718282 0
w -116 0.367879 0
w 116 2.718282 0
w -117 0.367879 0
w 117 2.718282 0
w -118 0.367879 0
w 118 2.718282 0
w -119 0.367879 0
w 119 2.718282 0
w -120 0.367879 0
w 120 2.718282 0
w -121 0.367879 0
w 121 2.718282 0
w -123 0.367879 0
w 123 2.718282 0
w -124 0.367879 0
w 124 2.718282 0
w -125 0.367879 0
w 125 2.718282 0
w -126 0.367879 0
w 126 2.718282 0
w -127 0.367879 0
w 127 2.718282 0
w -128 0.367879 0
w 128 2.718282 0
w -130 0.367879 0
w 130 2.718282 0
w -131 0.367879 0
w 131 2.718282 0
w -133 0.367879 0
w 133 2.718282 0
w -134 0.367879 0
w 134 2.718282 0
w -135 0.367879 0
w 135 2.718282 0
w -136 0.367879 0
w 136 2.718282 0
w -137 0.367879 0
w 137 2.718282 0
w -138 0.367879 0
w 138 2.718282 0
w -139 0.367879 0
w 139 2.718282 0
w -140 0.367879 0
w 140 2.718282 0
w -141 0.367879 0
w 141 2.718282 0
w -142 0.367879 0
w 142 2.718282 0
w -143 0.367879 0
w 143 2.718282 0
w -144 0.367879 0
w 144 2.718282 0
w -146 0.367879 0
w 146 2.718282 0
w -147 0.367879 0
w 147 2.718282 0
w -148 0.367879 0
w 148 2.718282 0
w -149 0.367879 0
w 149 2.718282 0
w -150 0.367879 0
w 150 2.718282 0
w -151 0.367879 0
w 151 2.718282 0
w -153 0.367879 0
w 153 2.718282 0
w -154 0.367879 0
w 154 2.718282 0
w -155 0.367879 0
w 155 2.718282 0
w -156 0.367879 0
w 156 2.718282 0
w -157 0.367879 0
w 157 2.718282 0
w -158 0.367879 0
w 158 2.718282 0
w -159 0.367879 0
w 159 2.718282 0
w -160 0.367879 0
w 160 2.718282 0
w -162 0.367879 0
w 162 2.718282 0
w -163 0.367879 0
w 163 2.718282 0
w -164 0.367879 0
w 164 2.718282 0
w -165 0.367879 0
w 165 2.718282 0
w -166 0.367879 0
w 166 2.718282 0
w -167 0.367879 0
w 167 2.718282 0
w -168 0.367879 0
w 168 2.718282 0
w -169 0.367879 0
w 169 2.718282 0
w -170 0.367879 0
w 170 2.718282 0
w -171 0.367879 0
w 171 2.718282 0
w -172 0.367879 0
w 172 2.718282 0
w -174 0.367879 0
w 174 2.718282 0
w -175 0.367879 0
w 175 2.718282 0
w -176 0.367879 0
w 176 2.718282 0
w -177 0.367879 0
w 177 2.718282 0
w -179 0.367879 0
w 179 2.718282 0
w -180 0.367879 0
w 180 2.718282 0
w -181 0.367879 0
w 181 2.718282 0
w -182 0.367879 0
w 182 2.718282 0
w -184 0.367879 0
w 184 2.718282 0
w -185 0.367879 0
w 185 2.718282 0
w -186 0.367879 0
w 186 2.718282 0
w -187 0.367879 0
w 187 2.718282 0
w -188 0.367879 0
w 188 2.718282 0
w -189 0.367879 0
w 189 2.718282 0
w -191 0.367879 0
w 191 2.718282 0
w -192 0.367879 0
w 192 2.718282 0
w -193 0.367879 0
w 193 2.718282 0
w -194 0.367879 0
w 194 2.718282 0
w -196 0.367879 0
w 196 2.718282 0
w -197 0.367879 0
w 197 2.718282 0
w -198 0.367879 0
w 198 2.718282 0
w -199 0.367879 0
w 199 2.718282 0
w -200 0.367879 0
w 200 2.718282 0
w -202 0.367879 0
w 202 2.718282 0
w -203 0.367879 0
w 203 2.718282 0
w -204 0.367879 0
w 204 2.718282 0
w -206 0.367879 0
w 206 2.718282 0
w -207 0.367879 0
w 207 2.718282 0
w -208 0.367879 0
w 208 2.718282 0
w -209 0.367879 0
w 209 2.718282 0
w -210 0.367879 0
w 210 2.718282 0
w -212 0.367879 0
w 212 2.718282 0
w -213 0.367879 0
w 213 2.718282 0
w -214 0.367879 0
w 214 2.718282 0
w -215 0.367879 0
w 215 2.718282 0
w -216 0.367879 0
w 216 2.718282 0
w -218 0.367879 0
w 218 2.718282 0
w -219 0.367879 0
w 219 2.718282 0
w -220 0.367879 0
w 220 2.718282 0
w -221 0.367879 0
w 221 2.718282 0
w -222 0.367879 0
w 222 2.718282 0
w -223 0.367879 0
w 223 2.718282 0
w -224 0.367879 0
w 224 2.718282 0
w -225 0.367879 0
w 225 2.718282 0
w -227 0.367879 0
w 227 2.718282 0
w -228 0.367879 0
w 228 2.718282 0
w -230 0.367879 0
w 230 2.718282 0
w -231 0.367879 0
w 231 2.718282 0
w -232 0.367879 0
w 232 2.718282 0
w -233 0.367879 0
w 233 2.718282 0
w -234 0.367879 0
w 234 2.718282 0
w -236 0.367879 0
w 236 2.718282 0
w -237 0.367879 0
w 237 2.718282 0
w -238 0.367879 0
w 238 2.718282 0
w -240 0.367879 0
w 240 2.718282 0
w -242 0.367879 0
w 242 2.718282 0
w -243 0.367879 0
w 243 2.718282 0
w -244 0.367879 0
w 244 2.718282 0
w -245 0.367879 0
w 245 2.718282 0
w -246 0.367879 0
w 246 2.718282 0
w -247 0.367879 0
w 247 2.718282 0
w -249 0.367879 0
w 249 2.718282 0
w -250 0.367879 0
w 250 2.718282 0
w -251 0.367879 0
w 251 2.718282 0
w -252 0.367879 0
w 252 2.718282 0
w -253 0.367879 0
w 253 2.718282 0
w -254 0.367879 0
w 254 2.718282 0
w -255 0.367879 0
w 255 2.718282 0
w -257 0.367879 0
w 257 2.718282 0
w -258 0.367879 0
w 258 2.718282 0
w -259 0.367879 0
w 259 2.718282 0
w -260 0.367879 0
w 260 2.718282 0
w -261 0.367879 0
w 261 2.718282 0
w -263 0.367879 0
w 263 2.718282 0
w -264 0.367879 0
w 264 2.718282 0
w -265 0.367879 0
w 265 2.718282 0
w -266 0.367879 0
w 266 2.718282 0
w -267 0.367879 0
w 267 2.718282 0
w -268 0.367879 0
w 268 2.718282 0
w -270 0.367879 0
w 270 2.718282 0
w -271 0.367879 0
w 271 2.718282 0
w -273 0.367879 0
w 273 2.718282 0
w -274 0.367879 0
w 274 2.718282 0
w -275 0.367879 0
w 275 2.718282 0
w -276 0.367879 0
w 276 2.718282 0
w -278 0.367879 0
w 278 2.718282 0
w -279 0.367879 0
w 279 2.718282 0
w -280 0.367879 0
w 280 2.718282 0
w -281 0.367879 0
w 281 2.718282 0
w -282 0.367879 0
w 282 2.718282 0
w -283 0.367879 0
w 283 2.718282 0
w -285 0.367879 0
w 285 2.718282 0
w -286 0.367879 0
w 286 2.718282 0
w -287 0.367879 0
w 287 2.718282 0
w -289 0.367879 0
w 289 2.718282 0
w -290 0.367879 0
w 290 2.718282 0
w -291 0.367879 0
w 291 2.718282 0
w -292 0.367879 0
w 292 2.718282 0
w -293 0.367879 0
w 293 2.718282 0
w -295 0.367879 0
w 295 2.718282 0
w -297 0.367879 0
w 297 2.718282 0
w -298 0.367879 0
w 298 2.718282 0
w -299 0.367879 0
w 299 2.718282 0
w -301 0.367879 0
w 301 2.718282 0
w -302 0.367879 0
w 302 2.718282 0
w -303 0.367879 0
w 303 2.718282 0
w -304 0.367879 0
w 304 2.718282 0
w -305 0.367879 0
w 305 2.718282 0
w -307 0.367879 0
w 307 2.718282 0
w -308 0.367879 0
w 308 2.718282 0
w -309 0.367879 0
w 309 2.718282 0
w -311 0.367879 0
w 311 2.718282 0
w -312 0.367879 0
w 312 2.718282 0
w -313 0.367879 0
w 313 2.718282 0
w -314 0.367879 0
w 314 2.718282 0
w -315 0.367879 0
w 315 2.718282 0
w -317 0.367879 0
w 317 2.718282 0
w -318 0.367879 0
w 318 2.718282 0
w -319 0.367879 0
w 319 2.718282 0
w -320 0.367879 0
w 320 2.718282 0
w -322 0.367879 0
w 322 2.718282 0
w -323 0.367879 0
w 323 2.718282 0
w -324 0.367879 0
w 324 2.718282 0
w -326 0.367879 0
w 326 2.718282 0
w -327 0.367879 0
w 327 2.718282 0
w -328 0.367879 0
w 328 2.718282 0
w -329 0.367879 0
w 329 2.718282 0
w -331 0.367879 0
w 331 2.718282 0
w -332 0.367879 0
w 332 2.718282 0
w -333 0.367879 0
w 333 2.718282 0
w -335 0.367879 0
w 335 2.718282 0
w -336 0.367879 0
w 336 2.718282 0
w -339 0.367879 0
w 339 2.718282 0
w -340 0.367879 0
w 340 2.718282 0
w -342 0.367879 0
w 342 2.718282 0
w -343 0.367879 0
w 343 2.718282 0
w -344 0.367879 0
w 344 2.718282 0
w -345 0.367879 0
w 345 2.718282 0
w -347 0.367879 0
w 347 2.718282 0
w -351 0.367879 0
w 351 2.718282 0
w -352 0.367879 0
w 352 2.718282 0
w -353 0.367879 0
w 353 2.718282 0
w -355 0.367879 0
w 355 2.718282 0
w -356 0.367879 0
w 356 2.718282 0
w -358 0.367879 0
w 358 2.718282 0
w -359 0.367879 0
w 359 2.718282 0
w -361 0.367879 0
w 361 2.718282 0
w -363 0.367879 0
w 363 2.718282 0
w -365 0.367879 0
w 365 2.718282 0
w -367 0.367879 0
w 367 2.718282 0
w -370 0.367879 0
w 370 2.718282 0
w -372 0.367879 0
w 372 2.718282 0
w -376 0.367879 0
w 376 2.718282 0
2 1 106 0
2 -1 -106 0
-2 1 -106 0
-2 -1 106 0
3 1 178 0
3 -1 -178 0
-3 1 -178 0
-3 -1 178 0
4 1 183 0
4 -1 -183 0
-4 1 -183 0
-4 -1 183 0
5 1 201 0
5 -1 -201 0
-5 1 -201 0
-5 -1 201 0
6 1 248 0
6 -1 -248 0
-6 1 -248 0
-6 -1 248 0
7 1 368 0
7 -1 -368 0
-7 1 -368 0
-7 -1 368 0
8 1 377 0
8 -1 -377 0
-8 1 -377 0
-8 -1 377 0
10 9 56 0
10 -9 -56 0
-10 9 -56 0
-10 -9 56 0
11 9 145 0
11 -9 -145 0
-11 9 -145 0
-11 -9 145 0
12 9 183 0
12 -9 -183 0
-12 9 -183 0
-12 -9 183 0
13 9 284 0
13 -9 -284 0
-13 9 -284 0
-13 -9 284 0
14 9 288 0
14 -9 -288 0
-14 9 -288 0
-14 -9 288 0
15 9 306 0
15 -9 -306 0
-15 9 -306 0
-15 -9 306 0
16 9 316 0
16 -9 -316 0
-16 9 -316 0
-16 -9 316 0
17 9 341 0
17 -9 -341 0
-17 9 -341 0
-17 -9 341 0
18 9 349 0
18 -9 -349 0
-18 9 -349 0
-18 -9 349 0
19 9 357 0
19 -9 -357 0
-19 9 -357 0
-19 -9 357 0
20 9 374 0
20 -9 -374 0
-20 9 -374 0
-20 -9 374 0
22 21 34 0
22 -21 -34 0
-22 21 -34 0
-22 -21 34 0
23 21 46 0
23 -21 -46 0
-23 21 -46 0
-23 -21 46 0
24 21 106 0
24 -21 -106 0
-24 21 -106 0
-24 -21 106 0
25 21 113 0
25 -21 -113 0
-25 21 -113 0
-25 -21 113 0
26 21 178 0
26 -21 -178 0
-26 21 -178 0
-26 -21 178 0
27 21 201 0
27 -21 -201 0
-27 21 -201 0
-27 -21 201 0
28 21 205 0
28 -21 -205 0
-28 21 -205 0
-28 -21 205 0
29 21 229 0
29 -21 -229 0
-29 21 -229 0
-29 -21 229 0
30 21 321 0
30 -21 -321 0
-30 21 -321 0
-30 -21 321 0
31 21 330 0
31 -21 -330 0
-31 21 -330 0
-31 -21 330 0
32 21 346 0
32 -21 -346 0
-32 21 -346 0
-32 -21 346 0
33 21 357 0
33 -21 -357 0
-33 21 -357 0
-33 -21 357 0
35 34 84 0
35 -34 -84 0
-35 34 -84 0
-35 -34 84 0
36 34 100 0
36 -34 -100 0
-36 34 -100 0
-36 -34 100 0
37 34 152 0
37 -34 -152 0
-37 34 -152 0
-37 -34 152 0
38 34 178 0
38 -34 -178 0
-38 34 -178 0
-38 -34 178 0
39 34 248 0
39 -34 -248 0
-39 34 -248 0
-39 -34 248 0
40 34 256 0
40 -34 -256 0
-40 34 -256 0
-40 -34 256 0
41 34 284 0
41 -34 -284 0
-41 34 -284 0
-41 -34 284 0
42 34 310 0
42 -34 -310 0
-42 34 -310 0
-42 -34 310 0
43 34 366 0
43 -34 -366 0
-43 34 -366 0
-43 -34 366 0
44 34 368 0
44 -34 -368 0
-44 34 -368 0
-44 -34 368 0
45 34 374 0
45 -34 -374 0
-45 34 -374 0
-45 -34 374 0
47 46 56 0
47 -46 -56 0
-47 46 -56 0
-47 -46 56 0
48 46 100 0
48 -46 -100 0
-48 46 -100 0
-48 -46 100 0
49 46 183 0
49 -46 -183 0
-49 46 -183 0
-49 -46 183 0
50 46 195 0
50 -46 -195 0
-50 46 -195 0
-50 -46 195 0
51 46 248 0
51 -46 -248 0
-51 46 -248 0
-51 -46 248 0
52 46 256 0
52 -46 -256 0
-52 46 -256 0
-52 -46 256 0
53 46 296 0
53 -46 -296 0
-53 46 -296 0
-53 -46 296 0
54 46 360 0
54 -46 -360 0
-54 46 -360 0
-54 -46 360 0
55 46 369 0
55 -46 -369 0
-55 46 -369 0
-55 -46 369 0
57 56 132 0
57 -56 -132 0
-57 56 -132 0
-57 -56 132 0
58 56 183 0
58 -56 -183 0
-58 56 -183 0
-58 -56 183 0
59 56 226 0
59 -56 -226 0
-59 56 -226 0
-59 -56 226 0
60 56 294 0
60 -56 -294 0
-60 56 -294 0
-60 -56 294 0
61 56 325 0
61 -56 -325 0
-61 56 -325 0
-61 -56 325 0
62 56 330 0
62 -56 -330 0
-62 56 -330 0
-62 -56 330 0
63 56 357 0
63 -56 -357 0
-63 56 -357 0
-63 -56 357 0
65 64 152 0
65 -64 -152 0
-65 64 -152 0
-65 -64 152 0
66 64 226 0
66 -64 -226 0
-66 64 -226 0
-66 -64 226 0
67 64 262 0
67 -64 -262 0
-67 64 -262 0
-67 -64 262 0
68 64 300 0
68 -64 -300 0
-68 64 -300 0
-68 -64 300 0
69 64 337 0
69 -64 -337 0
-69 64 -337 0
-69 -64 337 0
70 64 346 0
70 -64 -346 0
-70 64 -346 0
-70 -64 346 0
71 64 364 0
71 -64 -364 0
-71 64 -364 0
-71 -64 364 0
72 64 369 0
72 -64 -369 0
-72 64 -369 0
-72 -64 369 0
74 73 152 0
74 -73 -152 0
-74 73 -152 0
-74 -73 152 0
75 73 195 0
75 -73 -195 0
-75 73 -195 0
-75 -73 195 0
76 73 201 0
76 -73 -201 0
-76 73 -201 0
-76 -73 201 0
77 73 235 0
77 -73 -235 0
-77 73 -235 0
-77 -73 235 0
78 73 300 0
78 -73 -300 0
-78 73 -300 0
-78 -73 300 0
79 73 310 0
79 -73 -310 0
-79 73 -310 0
-79 -73 310 0
80 73 321 0
80 -73 -321 0
-80 73 -321 0
-80 -73 321 0
81 73 337 0
81 -73 -337 0
-81 73 -337 0
-81 -73 337 0
82 73 341 0
82 -73 -341 0
-82 73 -341 0
-82 -73 341 0
83 73 375 0
83 -73 -375 0
-83 73 -375 0
-83 -73 375 0
85 84 100 0
85 -84 -100 0
-85 84 -100 0
-85 -84 100 0
86 84 113 0
86 -84 -113 0
-86 84 -113 0
-86 -84 113 0
87 84 122 0
87 -84 -122 0
-87 84 -122 0
-87 -84 122 0
88 84 178 0
88 -84 -178 0
-88 84 -178 0
-88 -84 178 0
89 84 201 0
89 -84 -201 0
-89 84 -201 0
-89 -84 201 0
90 84 217 0
90 -84 -217 0
-90 84 -217 0
-90 -84 217 0
91 84 241 0
91 -84 -241 0
-91 84 -241 0
-91 -84 241 0
92 84 272 0
92 -84 -272 0
-92 84 -272 0
-92 -84 272 0
93 84 321 0
93 -84 -321 0
-93 84 -321 0
-93 -84 321 0
94 84 325 0
94 -84 -325 0
-94 84 -325 0
-94 -84 325 0
95 84 337 0
95 -84 -337 0
-95 84 -337 0
-95 -84 337 0
96 84 348 0
96 -84 -348 0
-96 84 -348 0
-96 -84 348 0
97 84 350 0
97 -84 -350 0
-97 84 -350 0
-97 -84 350 0
98 84 360 0
98 -84 -360 0
-98 84 -360 0
-98 -84 360 0
99 84 368 0
99 -84 -368 0
-99 84 -368 0
-99 -84 368 0
101 100 161 0
101 -100 -161 0
-101 100 -161 0
-101 -100 161 0
102 100 241 0
102 -100 -241 0
-102 100 -241 0
-102 -100 241 0
103 100 277 0
103 -100 -277 0
-103 100 -277 0
-103 -100 277 0
104 100 284 0
104 -100 -284 0
-104 100 -284 0
-104 -100 284 0
105 100 377 0
105 -100 -377 0
-105 100 -377 0
-105 -100 377 0
107 106 152 0
107 -106 -152 0
-107 106 -152 0
-107 -106 152 0
108 106 201 0
108 -106 -201 0
-108 106 -201 0
-108 -106 201 0
109 106 288 0
109 -106 -288 0
-109 106 -288 0
-109 -106 288 0
110 106 348 0
110 -106 -348 0
-110 106 -348 0
-110 -106 348 0
111 106 368 0
111 -106 -368 0
-111 106 -368 0
-111 -106 368 0
112 106 377 0
112 -106 -377 0
-112 106 -377 0
-112 -106 377 0
114 113 195 0
114 -113 -195 0
-114 113 -195 0
-114 -113 195 0
115 113 229 0
115 -113 -229 0
-115 113 -229 0
-115 -113 229 0
116 113 296 0
116 -113 -296 0
-116 113 -296 0
-116 -113 296 0
117 113 337 0
117 -113 -337 0
-117 113 -337 0
-117 -113 337 0
118 113 348 0
118 -113 -348 0
-118 113 -348 0
-118 -113 348 0
119 113 360 0
119 -113 -360 0
-119 113 -360 0
-119 -113 360 0
120 113 362 0
120 -113 -362 0
-120 113 -362 0
-120 -113 362 0
121 113 377 0
121 -113 -377 0
-121 113 -377 0
-121 -113 377 0
123 122 201 0
123 -122 -201 0
-123 122 -201 0
-123 -122 201 0
124 122 321 0
124 -122 -321 0
-124 122 -321 0
-124 -122 321 0
125 122 325 0
125 -122 -325 0
-125 122 -325 0
-125 -122 325 0
126 122 348 0
126 -122 -348 0
-126 122 -348 0
-126 -122 348 0
127 122 354 0
127 -122 -354 0
-127 122 -354 0
-127 -122 354 0
128 122 364 0
128 -122 -364 0
-128 122 -364 0
-128 -122 364 0
130 129 226 0
130 -129 -226 0
-130 129 -226 0
-130 -129 226 0
131 129 272 0
131 -129 -272 0
-131 129 -272 0
-131 -129 272 0
133 132 161 0
133 -132 -161 0
-133 132 -161 0
-133 -132 161 0
134 132 173 0
134 -132 -173 0
-134 132 -173 0
-134 -132 173 0
135 132 183 0
135 -132 -183 0
-135 132 -183 0
-135 -132 183 0
136 132 201 0
136 -132 -201 0
-136 132 -201 0
-136 -132 201 0
137 132 217 0
137 -132 -217 0
-137 132 -217 0
-137 -132 217 0
138 132 226 0
138 -132 -226 0
-138 132 -226 0
-138 -132 226 0
139 132 248 0
139 -132 -248 0
-139 132 -248 0
-139 -132 248 0
140 132 288 0
140 -132 -288 0
-140 132 -288 0
-140 -132 288 0
141 132 325 0
141 -132 -325 0
-141 132 -325 0
-141 -132 325 0
142 132 341 0
142 -132 -341 0
-142 132 -341 0
-142 -132 341 0
143 132 354 0
143 -132 -354 0
-143 132 -354 0
-143 -132 354 0
144 132 369 0
144 -132 -369 0
-144 132 -369 0
-144 -132 369 0
146 145 248 0
146 -145 -248 0
-146 145 -248 0
-146 -145 248 0
147 145 269 0
147 -145 -269 0
-147 145 -269 0
-147 -145 269 0
148 145 325 0
148 -145 -325 0
-148 145 -325 0
-148 -145 325 0
149 145 330 0
149 -145 -330 0
-149 145 -330 0
-149 -145 330 0
150 145 348 0
150 -145 -348 0
-150 145 -348 0
-150 -145 348 0
151 145 357 0
151 -145 -357 0
-151 145 -357 0
-151 -145 357 0
153 152 161 0
153 -152 -161 0
-153 152 -161 0
-153 -152 161 0
154 152 195 0
154 -152 -195 0
-154 152 -195 0
-154 -152 195 0
155 152 226 0
155 -152 -226 0
-155 152 -226 0
-155 -152 226 0
156 152 277 0
156 -152 -277 0
-156 152 -277 0
-156 -152 277 0
157 152 325 0
157 -152 -325 0
-157 152 -325 0
-157 -152 325 0
158 152 338 0
158 -152 -338 0
-158 152 -338 0
-158 -152 338 0
159 152 362 0
159 -152 -362 0
-159 152 -362 0
-159 -152 362 0
160 152 369 0
160 -152 -369 0
-160 152 -369 0
-160 -152 369 0
162 161 190 0
162 -161 -190 0
-162 161 -190 0
-162 -161 190 0
163 161 217 0
163 -161 -217 0
-163 161 -217 0
-163 -161 217 0
164 161 288 0
164 -161 -288 0
-164 161 -288 0
-164 -161 288 0
165 161 300 0
165 -161 -300 0
-165 161 -300 0
-165 -161 300 0
166 161 325 0
166 -161 -325 0
-166 161 -325 0
-166 -161 325 0
167 161 334 0
167 -161 -334 0
-167 161 -334 0
-167 -161 334 0
168 161 341 0
168 -161 -341 0
-168 161 -341 0
-168 -161 341 0
169 161 346 0
169 -161 -346 0
-169 161 -346 0
-169 -161 346 0
170 161 348 0
170 -161 -348 0
-170 161 -348 0
-170 -161 348 0
171 161 349 0
171 -161 -349 0
-171 161 -349 0
-171 -161 349 0
172 161 357 0
172 -161 -357 0
-172 161 -357 0
-172 -161 357 0
174 173 272 0
174 -173 -272 0
-174 173 -272 0
-174 -173 272 0
175 173 277 0
175 -173 -277 0
-175 173 -277 0
-175 -173 277 0
176 173 316 0
176 -173 -316 0
-176 173 -316 0
-176 -173 316 0
177 173 330 0
177 -173 -330 0
-177 173 -330 0
-177 -173 330 0
179 178 241 0
179 -178 -241 0
-179 178 -241 0
-179 -178 241 0
180 178 272 0
180 -178 -272 0
-180 178 -272 0
-180 -178 272 0
181 178 325 0
181 -178 -325 0
-181 178 -325 0
-181 -178 325 0
182 178 371 0
182 -178 -371 0
-182 178 -371 0
-182 -178 371 0
184 183 235 0
184 -183 -235 0
-184 183 -235 0
-184 -183 235 0
185 183 306 0
185 -183 -306 0
-185 183 -306 0
-185 -183 306 0
186 183 316 0
186 -183 -316 0
-186 183 -316 0
-186 -183 316 0
187 183 321 0
187 -183 -321 0
-187 183 -321 0
-187 -183 321 0
188 183 337 0
188 -183 -337 0
-188 183 -337 0
-188 -183 337 0
189 183 346 0
189 -183 -346 0
-189 183 -346 0
-189 -183 346 0
191 190 217 0
191 -190 -217 0
-191 190 -217 0
-191 -190 217 0
192 190 269 0
192 -190 -269 0
-192 190 -269 0
-192 -190 269 0
193 190 277 0
193 -190 -277 0
-193 190 -277 0
-193 -190 277 0
194 190 350 0
194 -190 -350 0
-194 190 -350 0
-194 -190 350 0
196 195 241 0
196 -195 -241 0
-196 195 -241 0
-196 -195 241 0
197 195 248 0
197 -195 -248 0
-197 195 -248 0
-197 -195 248 0
198 195 269 0
198 -195 -269 0
-198 195 -269 0
-198 -195 269 0
199 195 349 0
199 -195 -349 0
-199 195 -349 0
-199 -195 349 0
200 195 362 0
200 -195 -362 0
-200 195 -362 0
-200 -195 362 0
202 201 269 0
202 -201 -269 0
-202 201 -269 0
-202 -201 269 0
203 201 316 0
203 -201 -316 0
-203 201 -316 0
-203 -201 316 0
204 201 330 0
204 -201 -330 0
-204 201 -330 0
-204 -201 330 0
206 205 256 0
206 -205 -256 0
-206 205 -256 0
-206 -205 256 0
207 205 288 0
207 -205 -288 0
-207 205 -288 0
-207 -205 288 0
208 205 330 0
208 -205 -330 0
-208 205 -330 0
-208 -205 330 0
209 205 348 0
209 -205 -348 0
-209 205 -348 0
-209 -205 348 0
210 205 350 0
210 -205 -350 0
-210 205 -350 0
-210 -205 350 0
212 211 241 0
212 -211 -241 0
-212 211 -241 0
-212 -211 241 0
213 211 262 0
213 -211 -262 0
-213 211 -262 0
-213 -211 262 0
214 211 325 0
214 -211 -325 0
-214 211 -325 0
-214 -211 325 0
215 211 349 0
215 -211 -349 0
-215 211 -349 0
-215 -211 349 0
216 211 366 0
216 -211 -366 0
-216 211 -366 0
-216 -211 366 0
218 217 226 0
218 -217 -226 0
-218 217 -226 0
-218 -217 226 0
219 217 248 0
219 -217 -248 0
-219 217 -248 0
-219 -217 248 0
220 217 272 0
220 -217 -272 0
-220 217 -272 0
-220 -217 272 0
221 217 294 0
221 -217 -294 0
-221 217 -294 0
-221 -217 294 0
222 217 316 0
222 -217 -316 0
-222 217 -316 0
-222 -217 316 0
223 217 348 0
223 -217 -348 0
-223 217 -348 0
-223 -217 348 0
224 217 349 0
224 -217 -349 0
-224 217 -349 0
-224 -217 349 0
225 217 375 0
225 -217 -375 0
-225 217 -375 0
-225 -217 375 0
227 226 269 0
227 -226 -269 0
-227 226 -269 0
-227 -226 269 0
228 226 357 0
228 -226 -357 0
-228 226 -357 0
-228 -226 357 0
230 229 241 0
230 -229 -241 0
-230 229 -241 0
-230 -229 241 0
231 229 269 0
231 -229 -269 0
-231 229 -269 0
-231 -229 269 0
232 229 350 0
232 -229 -350 0
-232 229 -350 0
-232 -229 350 0
233 229 364 0
233 -229 -364 0
-233 229 -364 0
-233 -229 364 0
234 229 375 0
234 -229 -375 0
-234 229 -375 0
-234 -229 375 0
236 235 294 0
236 -235 -294 0
-236 235 -294 0
-236 -235 294 0
237 235 296 0
237 -235 -296 0
-237 235 -296 0
-237 -235 296 0
238 235 369 0
238 -235 -369 0
-238 235 -369 0
-238 -235 369 0
240 239 269 0
240 -239 -269 0
-240 239 -269 0
-240 -239 269 0
242 241 248 0
242 -241 -248 0
-242 241 -248 0
-242 -241 248 0
243 241 272 0
243 -241 -272 0
-243 241 -272 0
-243 -241 272 0
244 241 277 0
244 -241 -277 0
-244 241 -277 0
-244 -241 277 0
245 241 316 0
245 -241 -316 0
-245 241 -316 0
-245 -241 316 0
246 241 325 0
246 -241 -325 0
-246 241 -325 0
-246 -241 325 0
247 241 337 0
247 -241 -337 0
-247 241 -337 0
-247 -241 337 0
249 248 262 0
249 -248 -262 0
-249 248 -262 0
-249 -248 262 0
250 248 269 0
250 -248 -269 0
-250 248 -269 0
-250 -248 269 0
251 248 306 0
251 -248 -306 0
-251 248 -306 0
-251 -248 306 0
252 248 354 0
252 -248 -354 0
-252 248 -354 0
-252 -248 354 0
253 248 357 0
253 -248 -357 0
-253 248 -357 0
-253 -248 357 0
254 248 368 0
254 -248 -368 0
-254 248 -368 0
-254 -248 368 0
255 248 377 0
255 -248 -377 0
-255 248 -377 0
-255 -248 377 0
257 256 357 0
257 -256 -357 0
-257 256 -357 0
-257 -256 357 0
258 256 364 0
258 -256 -364 0
-258 256 -364 0
-258 -256 364 0
259 256 366 0
259 -256 -366 0
-259 256 -366 0
-259 -256 366 0
260 256 368 0
260 -256 -368 0
-260 256 -368 0
-260 -256 368 0
261 256 374 0
261 -256 -374 0
-261 256 -374 0
-261 -256 374 0
263 262 284 0
263 -262 -284 0
-263 262 -284 0
-263 -262 284 0
264 262 288 0
264 -262 -288 0
-264 262 -288 0
-264 -262 288 0
265 262 306 0
265 -262 -306 0
-265 262 -306 0
-265 -262 306 0
266 262 341 0
266 -262 -341 0
-266 262 -341 0
-266 -262 341 0
267 262 346 0
267 -262 -346 0
-267 262 -346 0
-267 -262 346 0
268 262 368 0
268 -262 -368 0
-268 262 -368 0
-268 -262 368 0
270 269 349 0
270 -269 -349 0
-270 269 -349 0
-270 -269 349 0
271 269 369 0
271 -269 -369 0
-271 269 -369 0
-271 -269 369 0
273 272 294 0
273 -272 -294 0
-273 272 -294 0
-273 -272 294 0
274 272 306 0
274 -272 -306 0
-274 272 -306 0
-274 -272 306 0
275 272 346 0
275 -272 -346 0
-275 272 -346 0
-275 -272 346 0
276 272 375 0
276 -272 -375 0
-276 272 -375 0
-276 -272 375 0
278 277 310 0
278 -277 -310 0
-278 277 -310 0
-278 -277 310 0
279 277 348 0
279 -277 -348 0
-279 277 -348 0
-279 -277 348 0
280 277 349 0
280 -277 -349 0
-280 277 -349 0
-280 -277 349 0
281 277 354 0
281 -277 -354 0
-281 277 -354 0
-281 -277 354 0
282 277 369 0
282 -277 -369 0
-282 277 -369 0
-282 -277 369 0
283 277 377 0
283 -277 -377 0
-283 277 -377 0
-283 -277 377 0
285 284 337 0
285 -284 -337 0
-285 284 -337 0
-285 -284 337 0
286 284 341 0
286 -284 -341 0
-286 284 -341 0
-286 -284 341 0
287 284 362 0
287 -284 -362 0
-287 284 -362 0
-287 -284 362 0
289 288 321 0
289 -288 -321 0
-289 288 -321 0
-289 -288 321 0
290 288 341 0
290 -288 -341 0
-290 288 -341 0
-290 -288 341 0
291 288 357 0
291 -288 -357 0
-291 288 -357 0
-291 -288 357 0
292 288 362 0
292 -288 -362 0
-292 288 -362 0
-292 -288 362 0
293 288 375 0
293 -288 -375 0
-293 288 -375 0
-293 -288 375 0
295 294 337 0
295 -294 -337 0
-295 294 -337 0
-295 -294 337 0
297 296 310 0
297 -296 -310 0
-297 296 -310 0
-297 -296 310 0
298 296 354 0
298 -296 -354 0
-298 296 -354 0
-298 -296 354 0
299 296 369 0
299 -296 -369 0
-299 296 -369 0
-299 -296 369 0
301 300 321 0
301 -300 -321 0
-301 300 -321 0
-301 -300 321 0
302 300 330 0
302 -300 -330 0
-302 300 -330 0
-302 -300 330 0
303 300 337 0
303 -300 -337 0
-303 300 -337 0
-303 -300 337 0
304 300 348 0
304 -300 -348 0
-304 300 -348 0
-304 -300 348 0
305 300 374 0
305 -300 -374 0
-305 300 -374 0
-305 -300 374 0
307 306 310 0
307 -306 -310 0
-307 306 -310 0
-307 -306 310 0
308 306 341 0
308 -306 -341 0
-308 306 -341 0
-308 -306 341 0
309 306 373 0
309 -306 -373 0
-309 306 -373 0
-309 -306 373 0
311 310 316 0
311 -310 -316 0
-311 310 -316 0
-311 -310 316 0
312 310 325 0
312 -310 -325 0
-312 310 -325 0
-312 -310 325 0
313 310 362 0
313 -310 -362 0
-313 310 -362 0
-313 -310 362 0
314 310 364 0
314 -310 -364 0
-314 310 -364 0
-314 -310 364 0
315 310 373 0
315 -310 -373 0
-315 310 -373 0
-315 -310 373 0
317 316 330 0
317 -316 -330 0
-317 316 -330 0
-317 -316 330 0
318 316 348 0
318 -316 -348 0
-318 316 -348 0
-318 -316 348 0
319 316 357 0
319 -316 -357 0
-319 316 -357 0
-319 -316 357 0
320 316 375 0
320 -316 -375 0
-320 316 -375 0
-320 -316 375 0
322 321 354 0
322 -321 -354 0
-322 321 -354 0
-322 -321 354 0
323 321 360 0
323 -321 -360 0
-323 321 -360 0
-323 -321 360 0
324 321 371 0
324 -321 -371 0
-324 321 -371 0
-324 -321 371 0
326 325 330 0
326 -325 -330 0
-326 325 -330 0
-326 -325 330 0
327 325 354 0
327 -325 -354 0
-327 325 -354 0
-327 -325 354 0
328 325 357 0
328 -325 -357 0
-328 325 -357 0
-328 -325 357 0
329 325 375 0
329 -325 -375 0
-329 325 -375 0
-329 -325 375 0
331 330 362 0
331 -330 -362 0
-331 330 -362 0
-331 -330 362 0
332 330 369 0
332 -330 -369 0
-332 330 -369 0
-332 -330 369 0
333 330 375 0
333 -330 -375 0
-333 330 -375 0
-333 -330 375 0
335 334 349 0
335 -334 -349 0
-335 334 -349 0
-335 -334 349 0
336 334 364 0
336 -334 -364 0
-336 334 -364 0
-336 -334 364 0
339 338 341 0
339 -338 -341 0
-339 338 -341 0
-339 -338 341 0
340 338 373 0
340 -338 -373 0
-340 338 -373 0
-340 -338 373 0
342 341 346 0
342 -341 -346 0
-342 341 -346 0
-342 -341 346 0
343 341 357 0
343 -341 -357 0
-343 341 -357 0
-343 -341 357 0
344 341 364 0
344 -341 -364 0
-344 341 -364 0
-344 -341 364 0
345 341 368 0
345 -341 -368 0
-345 341 -368 0
-345 -341 368 0
347 346 362 0
347 -346 -362 0
-347 346 -362 0
-347 -346 362 0
351 350 357 0
351 -350 -357 0
-351 350 -357 0
-351 -350 357 0
352 350 362 0
352 -350 -362 0
-352 350 -362 0
-352 -350 362 0
353 350 374 0
353 -350 -374 0
-353 350 -374 0
-353 -350 374 0
355 354 362 0
355 -354 -362 0
-355 354 -362 0
-355 -354 362 0
356 354 375 0
356 -354 -375 0
-356 354 -375 0
-356 -354 375 0
358 357 369 0
358 -357 -369 0
-358 357 -369 0
-358 -357 369 0
359 357 374 0
359 -357 -374 0
-359 357 -374 0
-359 -357 374 0
361 360 377 0
361 -360 -377 0
-361 360 -377 0
-361 -360 377 0
363 362 371 0
363 -362 -371 0
-363 362 -371 0
-363 -362 371 0
365 364 366 0
365 -364 -366 0
-365 364 -366 0
-365 -364 366 0
367 366 369 0
367 -366 -369 0
-367 366 -369 0
-367 -366 369 0
370 369 377 0
370 -369 -377 0
-370 369 -377 0
-370 -369 377 0
372 371 375 0
372 -371 -375 0
-372 371 -375 0
-372 -371 375 0
376 375 377 0
376 -375 -377 0
-376 375 -377 0
-376 -375 377 0
